c colouring generated by benchmark framework
p edge 169 3328
v 1 10
v 2 6
v 3 1
v 4 9
v 5 7
v 6 8
v 7 11
v 8 5
v 9 15
v 10 4
v 11 0
v 12 12
v 13 2
v 14 15
v 15 8
v 16 14
v 17 2
v 18 12
v 19 0
v 20 9
v 21 6
v 22 10
v 23 7
v 24 1
v 25 11
v 26 5
v 27 9
v 28 0
v 29 12
v 30 3
v 31 15
v 32 4
v 33 5
v 34 7
v 35 14
v 36 8
v 37 13
v 38 6
v 39 1
v 40 2
v 41 15
v 42 5
v 43 4
v 44 13
v 45 11
v 46 6
v 47 12
v 48 0
v 49 9
v 50 3
v 51 8
v 52 14
v 53 1
v 54 11
v 55 6
v 56 7
v 57 3
v 58 12
v 59 4
v 60 10
v 61 8
v 62 2
v 63 15
v 64 0
v 65 9
v 66 6
v 67 7
v 68 8
v 69 0
v 70 9
v 71 1
v 72 2
v 73 3
v 74 11
v 75 10
v 76 5
v 77 4
v 78 12
v 79 14
v 80 12
v 81 13
v 82 5
v 83 10
v 84 3
v 85 0
v 86 4
v 87 7
v 88 1
v 89 2
v 90 15
v 91 8
v 92 0
v 93 4
v 94 3
v 95 11
v 96 6
v 97 7
v 98 1
v 99 2
v 100 9
v 101 12
v 102 8
v 103 14
v 104 10
v 105 7
v 106 1
v 107 2
v 108 15
v 109 14
v 110 10
v 111 3
v 112 11
v 113 6
v 114 0
v 115 9
v 116 5
v 117 4
v 118 8
v 119 3
v 120 4
v 121 6
v 122 0
v 123 9
v 124 7
v 125 1
v 126 2
v 127 5
v 128 11
v 129 10
v 130 13
v 131 5
v 132 14
v 133 10
v 134 13
v 135 11
v 136 2
v 137 8
v 138 9
v 139 4
v 140 6
v 141 7
v 142 1
v 143 0
v 144 13
v 145 16
v 146 7
v 147 12
v 148 8
v 149 5
v 150 10
v 151 0
v 152 1
v 153 11
v 154 4
v 155 9
v 156 15
v 157 4
v 158 9
v 159 0
v 160 10
v 161 16
v 162 6
v 163 12
v 164 8
v 165 5
v 166 3
v 167 14
v 168 13
v 169 11
